NAME : n100w40.001.770.tour
COMMENT : Length = 770
COMMENT : Found by LKH [Keld Helsgaun] Tue May  2 05:18:30 2017
TYPE : TOUR
DIMENSION : 101
TOUR_SECTION
1
17
100
29
40
3
20
45
70
67
33
38
31
77
47
48
58
8
87
54
22
63
89
59
34
41
62
6
79
18
4
84
27
5
82
46
42
24
65
55
13
95
85
28
86
19
12
61
90
14
76
57
36
15
2
81
23
94
92
60
72
49
52
91
56
75
21
7
99
71
30
64
93
80
66
26
98
10
43
35
73
88
11
83
9
32
78
37
53
16
68
51
39
96
69
74
25
44
101
97
50
-1
EOF
